p cnf 596 1477
c
c CNF representation of circuit s713 with a subset ofoutputs randomly xor-ed
c Generated by mMsim
c Total gates: 447 Total inputs 54
c
c
p cnf 596 1477
c
c Declaration of independent support
c
c ind 1 2 3 4 5 0
c ind 6 7 8 9 10 0
c ind 11 12 13 14 15 0
c ind 16 17 18 19 20 0
c ind 21 22 23 24 25 0
c ind 26 27 28 29 30 0
c ind 31 32 33 34 35 0
c ind 36 37 38 39 40 0
c ind 41 42 43 44 45 0
c ind 46 47 48 49 50 0
c ind 51 52 53 54 0
c
c Gate #56: not (NOT_0): out = 55, in = 1 
55 1 0
-55 -1 0
c Gate #57: not (NOT_1): out = 56, in = 2 
56 2 0
-56 -2 0
c Gate #58: not (NOT_2): out = 57, in = 3 
57 3 0
-57 -3 0
c Gate #59: not (NOT_3): out = 58, in = 4 
58 4 0
-58 -4 0
c Gate #60: not (NOT_4): out = 59, in = 5 
59 5 0
-59 -5 0
c Gate #61: not (NOT_5): out = 60, in = 6 
60 6 0
-60 -6 0
c Gate #62: not (NOT_6): out = 61, in = 7 
61 7 0
-61 -7 0
c Gate #63: not (NOT_7): out = 62, in = 8 
62 8 0
-62 -8 0
c Gate #64: not (NOT_8): out = 63, in = 9 
63 9 0
-63 -9 0
c Gate #65: not (NOT_9): out = 64, in = 10 
64 10 0
-64 -10 0
c Gate #66: not (NOT_10): out = 65, in = 11 
65 11 0
-65 -11 0
c Gate #67: not (NOT_11): out = 66, in = 12 
66 12 0
-66 -12 0
c Gate #68: not (NOT_12): out = 67, in = 26 
67 26 0
-67 -26 0
c Gate #69: not (NOT_13): out = 68, in = 67 
68 67 0
-68 -67 0
c Gate #70: not (NOT_14): out = 69, in = 28 
69 28 0
-69 -28 0
c Gate #71: not (NOT_15): out = 70, in = 42 
70 42 0
-70 -42 0
c Gate #72: not (NOT_16): out = 71, in = 70 
71 70 0
-71 -70 0
c Gate #73: not (NOT_17): out = 72, in = 43 
72 43 0
-72 -43 0
c Gate #74: not (NOT_18): out = 73, in = 72 
73 72 0
-73 -72 0
c Gate #75: not (NOT_19): out = 74, in = 44 
74 44 0
-74 -44 0
c Gate #76: not (NOT_20): out = 75, in = 74 
75 74 0
-75 -74 0
c Gate #77: not (NOT_21): out = 76, in = 52 
76 52 0
-76 -52 0
c Gate #78: not (NOT_22): out = 77, in = 76 
77 76 0
-77 -76 0
c Gate #79: not (NOT_23): out = 78, in = 45 
78 45 0
-78 -45 0
c Gate #80: not (NOT_24): out = 79, in = 78 
79 78 0
-79 -78 0
c Gate #81: not (NOT_25): out = 80, in = 53 
80 53 0
-80 -53 0
c Gate #82: not (NOT_26): out = 81, in = 80 
81 80 0
-81 -80 0
c Gate #83: not (NOT_27): out = 82, in = 46 
82 46 0
-82 -46 0
c Gate #84: not (NOT_28): out = 83, in = 82 
83 82 0
-83 -82 0
c Gate #85: not (NOT_29): out = 84, in = 54 
84 54 0
-84 -54 0
c Gate #86: not (NOT_30): out = 85, in = 84 
85 84 0
-85 -84 0
c Gate #87: not (NOT_31): out = 86, in = 47 
86 47 0
-86 -47 0
c Gate #88: not (NOT_32): out = 87, in = 86 
87 86 0
-87 -86 0
c Gate #89: not (NOT_33): out = 88, in = 40 
88 40 0
-88 -40 0
c Gate #90: not (NOT_34): out = 89, in = 88 
89 88 0
-89 -88 0
c Gate #91: not (NOT_35): out = 90, in = 48 
90 48 0
-90 -48 0
c Gate #92: not (NOT_36): out = 91, in = 90 
91 90 0
-91 -90 0
c Gate #93: not (NOT_37): out = 92, in = 41 
92 41 0
-92 -41 0
c Gate #94: not (NOT_38): out = 93, in = 92 
93 92 0
-93 -92 0
c Gate #95: not (NOT_39): out = 94, in = 49 
94 49 0
-94 -49 0
c Gate #96: not (NOT_40): out = 95, in = 94 
95 94 0
-95 -94 0
c Gate #97: not (NOT_41): out = 96, in = 50 
96 50 0
-96 -50 0
c Gate #98: not (NOT_42): out = 97, in = 96 
97 96 0
-97 -96 0
c Gate #99: not (NOT_43): out = 98, in = 51 
98 51 0
-98 -51 0
c Gate #100: not (NOT_44): out = 99, in = 98 
99 98 0
-99 -98 0
c Gate #101: not (NOT_45): out = 100, in = 55 
100 55 0
-100 -55 0
c Gate #102: not (NOT_46): out = 101, in = 58 
101 58 0
-101 -58 0
c Gate #103: not (NOT_47): out = 102, in = 59 
102 59 0
-102 -59 0
c Gate #104: not (NOT_48): out = 103, in = 60 
103 60 0
-103 -60 0
c Gate #105: not (NOT_49): out = 104, in = 61 
104 61 0
-104 -61 0
c Gate #106: not (NOT_50): out = 105, in = 62 
105 62 0
-105 -62 0
c Gate #107: not (NOT_51): out = 106, in = 63 
106 63 0
-106 -63 0
c Gate #108: not (NOT_52): out = 107, in = 64 
107 64 0
-107 -64 0
c Gate #109: not (NOT_53): out = 108, in = 65 
108 65 0
-108 -65 0
c Gate #110: not (NOT_54): out = 109, in = 66 
109 66 0
-109 -66 0
c Gate #111: not (NOT_55): out = 110, in = 69 
110 69 0
-110 -69 0
c Gate #112: not (NOT_56): out = 111, in = 101 
111 101 0
-111 -101 0
c Gate #113: not (NOT_57): out = 112, in = 101 
112 101 0
-112 -101 0
c Gate #114: not (NOT_58): out = 113, in = 101 
113 101 0
-113 -101 0
c Gate #115: not (NOT_59): out = 114, in = 101 
114 101 0
-114 -101 0
c Gate #116: not (NOT_60): out = 115, in = 101 
115 101 0
-115 -101 0
c Gate #117: not (NOT_61): out = 116, in = 101 
116 101 0
-116 -101 0
c Gate #118: not (NOT_62): out = 117, in = 101 
117 101 0
-117 -101 0
c Gate #119: not (NOT_63): out = 118, in = 105 
118 105 0
-118 -105 0
c Gate #120: not (NOT_64): out = 119, in = 106 
119 106 0
-119 -106 0
c Gate #121: not (NOT_65): out = 120, in = 107 
120 107 0
-120 -107 0
c Gate #122: not (NOT_66): out = 121, in = 108 
121 108 0
-121 -108 0
c Gate #123: not (NOT_67): out = 122, in = 109 
122 109 0
-122 -109 0
c Gate #124: and (AND3_0): out = 123, in = 109 108 107 
-448 109 0
-448 108 0
448 -109 -108 0
-123 448 0
-123 107 0
123 -448 -107 0
c Gate #125: and (AND2_0): out = 124, in = 93 111 
-124 93 0
-124 111 0
124 -93 -111 0
c Gate #126: and (AND2_1): out = 125, in = 73 112 
-125 73 0
-125 112 0
125 -73 -112 0
c Gate #127: and (AND2_2): out = 126, in = 79 113 
-126 79 0
-126 113 0
126 -79 -113 0
c Gate #128: and (AND2_3): out = 127, in = 99 114 
-127 99 0
-127 114 0
127 -99 -114 0
c Gate #129: and (AND2_4): out = 128, in = 77 115 
-128 77 0
-128 115 0
128 -77 -115 0
c Gate #130: and (AND2_5): out = 129, in = 81 116 
-129 81 0
-129 116 0
129 -81 -116 0
c Gate #131: and (AND2_6): out = 130, in = 85 117 
-130 85 0
-130 117 0
130 -85 -117 0
c Gate #132: and (AND2_7): out = 131, in = 120 57 
-131 120 0
-131 57 0
131 -120 -57 0
c Gate #133: and (AND2_8): out = 132, in = 120 57 
-132 120 0
-132 57 0
132 -120 -57 0
c Gate #134: and (AND2_9): out = 133, in = 120 57 
-133 120 0
-133 57 0
133 -120 -57 0
c Gate #135: and (AND2_10): out = 134, in = 120 57 
-134 120 0
-134 57 0
134 -120 -57 0
c Gate #136: and (AND4_0): out = 135, in = 122 119 118 57 
-449 122 0
-449 119 0
449 -122 -119 0
-450 449 0
-450 118 0
450 -449 -118 0
-135 450 0
-135 57 0
135 -450 -57 0
c Gate #137: and (AND4_1): out = 136, in = 122 106 118 57 
-451 122 0
-451 106 0
451 -122 -106 0
-452 451 0
-452 118 0
452 -451 -118 0
-136 452 0
-136 57 0
136 -452 -57 0
c Gate #138: and (AND4_2): out = 137, in = 122 119 105 57 
-453 122 0
-453 119 0
453 -122 -119 0
-454 453 0
-454 105 0
454 -453 -105 0
-137 454 0
-137 57 0
137 -454 -57 0
c Gate #139: and (AND4_3): out = 138, in = 122 106 105 57 
-455 122 0
-455 106 0
455 -122 -106 0
-456 455 0
-456 105 0
456 -455 -105 0
-138 456 0
-138 57 0
138 -456 -57 0
c Gate #140: or (OR3_0): out = 139, in = 37 136 132 
457 -37 0
457 -136 0
-457 37 136 0
139 -457 0
139 -132 0
-139 457 132 0
c Gate #141: or (OR3_1): out = 140, in = 138 39 134 
458 -138 0
458 -39 0
-458 138 39 0
140 -458 0
140 -134 0
-140 458 134 0
c Gate #142: not (NOT_87): out = 141, in = 130 
141 130 0
-141 -130 0
c Gate #143: not (NOT_88): out = 142, in = 141 
142 141 0
-142 -141 0
c Gate #144: not (NOT_98): out = 143, in = 139 
143 139 0
-143 -139 0
c Gate #145: not (NOT_99): out = 144, in = 140 
144 140 0
-144 -140 0
c Gate #146: not (NOT_106): out = 145, in = 143 
145 143 0
-145 -143 0
c Gate #147: not (NOT_107): out = 146, in = 144 
146 144 0
-146 -144 0
c Gate #148: not (NOT_68): out = 147, in = 123 
147 123 0
-147 -123 0
c Gate #149: not (NOT_69): out = 148, in = 124 
148 124 0
-148 -124 0
c Gate #150: not (NOT_70): out = 149, in = 148 
149 148 0
-149 -148 0
c Gate #151: not (NOT_71): out = 150, in = 124 
150 124 0
-150 -124 0
c Gate #152: not (NOT_72): out = 151, in = 150 
151 150 0
-151 -150 0
c Gate #153: not (NOT_73): out = 152, in = 125 
152 125 0
-152 -125 0
c Gate #154: not (NOT_74): out = 153, in = 152 
153 152 0
-153 -152 0
c Gate #155: not (NOT_75): out = 154, in = 125 
154 125 0
-154 -125 0
c Gate #156: not (NOT_76): out = 155, in = 154 
155 154 0
-155 -154 0
c Gate #157: not (NOT_77): out = 156, in = 126 
156 126 0
-156 -126 0
c Gate #158: not (NOT_78): out = 157, in = 156 
157 156 0
-157 -156 0
c Gate #159: not (NOT_79): out = 158, in = 126 
158 126 0
-158 -126 0
c Gate #160: not (NOT_80): out = 159, in = 158 
159 158 0
-159 -158 0
c Gate #161: not (NOT_81): out = 160, in = 127 
160 127 0
-160 -127 0
c Gate #162: not (NOT_82): out = 161, in = 160 
161 160 0
-161 -160 0
c Gate #163: not (NOT_83): out = 162, in = 128 
162 128 0
-162 -128 0
c Gate #164: and (AND2_11): out = 163, in = 34 151 
-163 34 0
-163 151 0
163 -34 -151 0
c Gate #165: and (AND2_12): out = 164, in = 32 155 
-164 32 0
-164 155 0
164 -32 -155 0
c Gate #166: and (AND2_13): out = 165, in = 30 159 
-165 30 0
-165 159 0
165 -30 -159 0
c Gate #167: and (AND2_14): out = 166, in = 17 161 
-166 17 0
-166 161 0
166 -17 -161 0
c Gate #168: and (AND2_17): out = 167, in = 20 142 
-167 20 0
-167 142 0
167 -20 -142 0
c Gate #169: not (NOT_84): out = 168, in = 162 
168 162 0
-168 -162 0
c Gate #170: not (NOT_85): out = 169, in = 129 
169 129 0
-169 -129 0
c Gate #171: nand (NAND2_0): out = 170, in = 143 139 
170 143 0
170 139 0
-170 -143 -139 0
c Gate #172: nand (NAND2_1): out = 171, in = 144 140 
171 144 0
171 140 0
-171 -144 -140 0
c Gate #173: nand (NAND2_2): out = 172, in = 145 170 
172 145 0
172 170 0
-172 -145 -170 0
c Gate #174: nand (NAND2_3): out = 173, in = 146 171 
173 146 0
173 171 0
-173 -146 -171 0
c Gate #175: not (NOT_92): out = 174, in = 153 
174 153 0
-174 -153 0
c Gate #176: not (NOT_93): out = 175, in = 174 
175 174 0
-175 -174 0
c Gate #177: not (NOT_94): out = 176, in = 157 
176 157 0
-176 -157 0
c Gate #178: not (NOT_95): out = 177, in = 176 
177 176 0
-177 -176 0
c Gate #179: not (NOT_86): out = 178, in = 169 
178 169 0
-178 -169 0
c Gate #180: not (NOT_89): out = 179, in = 147 
179 147 0
-179 -147 0
c Gate #181: not (NOT_101): out = 180, in = 163 
180 163 0
-180 -163 0
c Gate #182: not (NOT_102): out = 181, in = 175 
181 175 0
-181 -175 0
c Gate #183: not (NOT_103): out = 182, in = 164 
182 164 0
-182 -164 0
c Gate #184: not (NOT_104): out = 183, in = 177 
183 177 0
-183 -177 0
c Gate #185: not (NOT_105): out = 184, in = 165 
184 165 0
-184 -165 0
c Gate #186: not (NOT_90): out = 185, in = 149 
185 149 0
-185 -149 0
c Gate #187: not (NOT_91): out = 186, in = 185 
186 185 0
-186 -185 0
c Gate #188: not (NOT_108): out = 187, in = 172 
187 172 0
-187 -172 0
c Gate #189: not (NOT_109): out = 188, in = 187 
188 187 0
-188 -187 0
c Gate #190: not (NOT_110): out = 189, in = 173 
189 173 0
-189 -173 0
c Gate #191: not (NOT_111): out = 190, in = 189 
190 189 0
-190 -189 0
c Gate #192: and (AND2_15): out = 191, in = 18 168 
-191 18 0
-191 168 0
191 -18 -168 0
c Gate #193: and (AND2_16): out = 192, in = 19 178 
-192 19 0
-192 178 0
192 -19 -178 0
c Gate #194: and (AND2_19): out = 193, in = 22 188 
-193 22 0
-193 188 0
193 -22 -188 0
c Gate #195: and (AND2_20): out = 194, in = 24 190 
-194 24 0
-194 190 0
194 -24 -190 0
c Gate #196: not (NOT_113): out = 195, in = 193 
195 193 0
-195 -193 0
c Gate #197: not (NOT_114): out = 196, in = 194 
196 194 0
-196 -194 0
c Gate #198: not (NOT_115): out = 197, in = 194 
197 194 0
-197 -194 0
c Gate #199: not (NOT_116): out = 198, in = 195 
198 195 0
-198 -195 0
c Gate #200: not (NOT_117): out = 199, in = 197 
199 197 0
-199 -197 0
c Gate #201: not (NOT_118): out = 200, in = 198 
200 198 0
-200 -198 0
c Gate #202: not (NOT_119): out = 201, in = 200 
201 200 0
-201 -200 0
c Gate #203: not (NOT_120): out = 202, in = 199 
202 199 0
-202 -199 0
c Gate #204: not (NOT_121): out = 203, in = 202 
203 202 0
-203 -202 0
c Gate #205: not (NOT_122): out = 204, in = 201 
204 201 0
-204 -201 0
c Gate #206: not (NOT_96): out = 205, in = 179 
205 179 0
-205 -179 0
c Gate #207: not (NOT_97): out = 206, in = 205 
206 205 0
-206 -205 0
c Gate #208: not (NOT_123): out = 207, in = 204 
207 204 0
-207 -204 0
c Gate #209: not (NOT_124): out = 208, in = 203 
208 203 0
-208 -203 0
c Gate #210: not (NOT_100): out = 209, in = 186 
209 186 0
-209 -186 0
c Gate #211: not (NOT_125): out = 210, in = 207 
210 207 0
-210 -207 0
c Gate #212: not (NOT_126): out = 211, in = 208 
211 208 0
-211 -208 0
c Gate #213: not (NOT_127): out = 212, in = 210 
212 210 0
-212 -210 0
c Gate #214: not (NOT_112): out = 213, in = 193 
213 193 0
-213 -193 0
c Gate #215: and (AND2_18): out = 214, in = 27 206 
-214 27 0
-214 206 0
214 -27 -206 0
c Gate #216: and (AND2_21): out = 215, in = 89 211 
-215 89 0
-215 211 0
215 -89 -211 0
c Gate #217: and (AND2_23): out = 216, in = 75 212 
-216 75 0
-216 212 0
216 -75 -212 0
c Gate #218: nand (NAND2_4): out = 217, in = 208 57 
217 208 0
217 57 0
-217 -208 -57 0
c Gate #219: nand (NAND2_5): out = 218, in = 210 57 
218 210 0
218 57 0
-218 -210 -57 0
c Gate #220: not (NOT_128): out = 219, in = 215 
219 215 0
-219 -215 0
c Gate #221: not (NOT_129): out = 220, in = 219 
220 219 0
-220 -219 0
c Gate #222: not (NOT_130): out = 221, in = 215 
221 215 0
-221 -215 0
c Gate #223: not (NOT_131): out = 222, in = 221 
222 221 0
-222 -221 0
c Gate #224: not (NOT_136): out = 223, in = 216 
223 216 0
-223 -216 0
c Gate #225: not (NOT_137): out = 224, in = 223 
224 223 0
-224 -223 0
c Gate #226: not (NOT_138): out = 225, in = 216 
225 216 0
-225 -216 0
c Gate #227: not (NOT_139): out = 226, in = 225 
226 225 0
-226 -225 0
c Gate #228: and (AND2_22): out = 227, in = 97 217 
-227 97 0
-227 217 0
227 -97 -217 0
c Gate #229: and (AND2_24): out = 228, in = 91 218 
-228 91 0
-228 218 0
228 -91 -218 0
c Gate #230: and (AND2_25): out = 229, in = 35 222 
-229 35 0
-229 222 0
229 -35 -222 0
c Gate #231: and (AND2_27): out = 230, in = 31 226 
-230 31 0
-230 226 0
230 -31 -226 0
c Gate #232: not (NOT_140): out = 231, in = 228 
231 228 0
-231 -228 0
c Gate #233: not (NOT_141): out = 232, in = 231 
232 231 0
-232 -231 0
c Gate #234: not (NOT_142): out = 233, in = 228 
233 228 0
-233 -228 0
c Gate #235: not (NOT_143): out = 234, in = 233 
234 233 0
-234 -233 0
c Gate #236: not (NOT_144): out = 235, in = 220 
235 220 0
-235 -220 0
c Gate #237: not (NOT_145): out = 236, in = 235 
236 235 0
-236 -235 0
c Gate #238: not (NOT_148): out = 237, in = 224 
237 224 0
-237 -224 0
c Gate #239: not (NOT_149): out = 238, in = 237 
238 237 0
-238 -237 0
c Gate #240: not (NOT_150): out = 239, in = 232 
239 232 0
-239 -232 0
c Gate #241: not (NOT_151): out = 240, in = 239 
240 239 0
-240 -239 0
c Gate #242: not (NOT_152): out = 241, in = 236 
241 236 0
-241 -236 0
c Gate #243: not (NOT_153): out = 242, in = 229 
242 229 0
-242 -229 0
c Gate #244: not (NOT_156): out = 243, in = 238 
243 238 0
-243 -238 0
c Gate #245: not (NOT_157): out = 244, in = 230 
244 230 0
-244 -230 0
c Gate #246: not (NOT_132): out = 245, in = 227 
245 227 0
-245 -227 0
c Gate #247: not (NOT_133): out = 246, in = 245 
246 245 0
-246 -245 0
c Gate #248: not (NOT_134): out = 247, in = 227 
247 227 0
-247 -227 0
c Gate #249: not (NOT_135): out = 248, in = 247 
248 247 0
-248 -247 0
c Gate #250: not (NOT_158): out = 249, in = 240 
249 240 0
-249 -240 0
c Gate #251: not (NOT_160): out = 250, in = 241 
250 241 0
-250 -241 0
c Gate #252: and (AND2_26): out = 251, in = 16 248 
-251 16 0
-251 248 0
251 -16 -248 0
c Gate #253: and (AND2_28): out = 252, in = 14 234 
-252 14 0
-252 234 0
252 -14 -234 0
c Gate #254: and (AND2_29): out = 253, in = 236 208 
-253 236 0
-253 208 0
253 -236 -208 0
c Gate #255: and (AND4_4): out = 254, in = 122 236 106 105 
-459 122 0
-459 236 0
459 -122 -236 0
-460 459 0
-460 106 0
460 -459 -106 0
-254 460 0
-254 105 0
254 -460 -105 0
c Gate #256: and (AND3_1): out = 255, in = 175 238 210 
-461 175 0
-461 238 0
461 -175 -238 0
-255 461 0
-255 210 0
255 -461 -210 0
c Gate #257: and (AND3_2): out = 256, in = 238 106 118 
-462 238 0
-462 106 0
462 -238 -106 0
-256 462 0
-256 118 0
256 -462 -118 0
c Gate #258: and (AND2_34): out = 257, in = 240 56 
-257 240 0
-257 56 0
257 -240 -56 0
c Gate #259: and (AND2_35): out = 258, in = 102 240 
-258 102 0
-258 240 0
258 -102 -240 0
c Gate #260: and (AND3_4): out = 259, in = 256 122 175 
-463 256 0
-463 122 0
463 -256 -122 0
-259 463 0
-259 175 0
259 -463 -175 0
c Gate #261: and (AND2_36): out = 260, in = 181 243 
-260 181 0
-260 243 0
260 -181 -243 0
c Gate #262: and (AND2_37): out = 261, in = 175 243 
-261 175 0
-261 243 0
261 -175 -243 0
c Gate #263: and (AND3_5): out = 262, in = 175 243 207 
-464 175 0
-464 243 0
464 -175 -243 0
-262 464 0
-262 207 0
262 -464 -207 0
c Gate #264: and (AND3_6): out = 263, in = 249 36 56 
-465 249 0
-465 36 0
465 -249 -36 0
-263 465 0
-263 56 0
263 -465 -56 0
c Gate #265: or (OR2_0): out = 264, in = 255 261 
264 -255 0
264 -261 0
-264 255 261 0
c Gate #266: or (OR2_1): out = 265, in = 262 260 
265 -262 0
265 -260 0
-265 262 260 0
c Gate #267: not (NOT_162): out = 266, in = 250 
266 250 0
-266 -250 0
c Gate #268: not (NOT_146): out = 267, in = 246 
267 246 0
-267 -246 0
c Gate #269: not (NOT_147): out = 268, in = 267 
268 267 0
-268 -267 0
c Gate #270: not (NOT_154): out = 269, in = 268 
269 268 0
-269 -268 0
c Gate #271: not (NOT_155): out = 270, in = 251 
270 251 0
-270 -251 0
c Gate #272: not (NOT_165): out = 271, in = 264 
271 264 0
-271 -264 0
c Gate #273: not (NOT_166): out = 272, in = 265 
272 265 0
-272 -265 0
c Gate #274: not (NOT_169): out = 273, in = 271 
273 271 0
-273 -271 0
c Gate #275: not (NOT_159): out = 274, in = 252 
274 252 0
-274 -252 0
c Gate #276: not (NOT_170): out = 275, in = 272 
275 272 0
-275 -272 0
c Gate #277: and (AND2_30): out = 276, in = 268 56 
-276 268 0
-276 56 0
276 -268 -56 0
c Gate #278: and (AND2_31): out = 277, in = 268 100 
-277 268 0
-277 100 0
277 -268 -100 0
c Gate #279: and (AND2_32): out = 278, in = 268 56 
-278 268 0
-278 56 0
278 -268 -56 0
c Gate #280: and (AND2_33): out = 279, in = 268 56 
-279 268 0
-279 56 0
279 -268 -56 0
c Gate #281: and (AND3_3): out = 280, in = 269 38 56 
-466 269 0
-466 38 0
466 -269 -38 0
-280 466 0
-280 56 0
280 -466 -56 0
c Gate #282: or (OR3_2): out = 281, in = 137 280 133 
467 -137 0
467 -280 0
-467 137 280 0
281 -467 0
281 -133 0
-281 467 133 0
c Gate #283: or (OR2_2): out = 282, in = 253 266 
282 -253 0
282 -266 0
-282 253 266 0
c Gate #284: nand (NAND2_7): out = 283, in = 271 264 
283 271 0
283 264 0
-283 -271 -264 0
c Gate #285: nand (NAND2_8): out = 284, in = 272 265 
284 272 0
284 265 0
-284 -272 -265 0
c Gate #286: nand (NAND2_11): out = 285, in = 273 283 
285 273 0
285 283 0
-285 -273 -283 0
c Gate #287: nand (NAND2_12): out = 286, in = 275 284 
286 275 0
286 284 0
-286 -275 -284 0
c Gate #288: not (NOT_164): out = 287, in = 281 
287 281 0
-287 -281 0
c Gate #289: not (NOT_167): out = 288, in = 282 
288 282 0
-288 -282 0
c Gate #290: not (NOT_168): out = 289, in = 287 
289 287 0
-289 -287 0
c Gate #291: not (NOT_171): out = 290, in = 288 
290 288 0
-290 -288 0
c Gate #292: not (NOT_161): out = 291, in = 279 
291 279 0
-291 -279 0
c Gate #293: not (NOT_163): out = 292, in = 291 
292 291 0
-292 -291 0
c Gate #294: nand (NAND2_6): out = 293, in = 287 281 
293 287 0
293 281 0
-293 -287 -281 0
c Gate #295: nand (NAND2_9): out = 294, in = 288 282 
294 288 0
294 282 0
-294 -288 -282 0
c Gate #296: nand (NAND2_10): out = 295, in = 289 293 
295 289 0
295 293 0
-295 -289 -293 0
c Gate #297: nand (NAND2_13): out = 296, in = 290 294 
296 290 0
296 294 0
-296 -290 -294 0
c Gate #298: not (NOT_172): out = 297, in = 295 
297 295 0
-297 -295 0
c Gate #299: not (NOT_173): out = 298, in = 297 
298 297 0
-298 -297 0
c Gate #300: and (AND2_38): out = 299, in = 23 298 
-299 23 0
-299 298 0
299 -23 -298 0
c Gate #301: not (NOT_174): out = 300, in = 299 
300 299 0
-300 -299 0
c Gate #302: not (NOT_175): out = 301, in = 299 
301 299 0
-301 -299 0
c Gate #303: not (NOT_176): out = 302, in = 301 
302 301 0
-302 -301 0
c Gate #304: not (NOT_177): out = 303, in = 302 
303 302 0
-303 -302 0
c Gate #305: not (NOT_178): out = 304, in = 303 
304 303 0
-304 -303 0
c Gate #306: not (NOT_179): out = 305, in = 304 
305 304 0
-305 -304 0
c Gate #307: not (NOT_180): out = 306, in = 305 
306 305 0
-306 -305 0
c Gate #308: not (NOT_181): out = 307, in = 306 
307 306 0
-307 -306 0
c Gate #309: nand (NAND2_14): out = 308, in = 307 57 
308 307 0
308 57 0
-308 -307 -57 0
c Gate #310: not (NOT_182): out = 309, in = 307 
309 307 0
-309 -307 0
c Gate #311: and (AND2_39): out = 310, in = 71 309 
-310 71 0
-310 309 0
310 -71 -309 0
c Gate #312: and (AND2_40): out = 311, in = 95 308 
-311 95 0
-311 308 0
311 -95 -308 0
c Gate #313: not (NOT_183): out = 312, in = 310 
312 310 0
-312 -310 0
c Gate #314: not (NOT_184): out = 313, in = 312 
313 312 0
-313 -312 0
c Gate #315: not (NOT_185): out = 314, in = 310 
314 310 0
-314 -310 0
c Gate #316: not (NOT_186): out = 315, in = 314 
315 314 0
-315 -314 0
c Gate #317: not (NOT_187): out = 316, in = 311 
316 311 0
-316 -311 0
c Gate #318: not (NOT_188): out = 317, in = 316 
317 316 0
-317 -316 0
c Gate #319: not (NOT_189): out = 318, in = 311 
318 311 0
-318 -311 0
c Gate #320: not (NOT_190): out = 319, in = 318 
319 318 0
-319 -318 0
c Gate #321: not (NOT_191): out = 320, in = 313 
320 313 0
-320 -313 0
c Gate #322: not (NOT_192): out = 321, in = 320 
321 320 0
-321 -320 0
c Gate #323: not (NOT_193): out = 322, in = 317 
322 317 0
-322 -317 0
c Gate #324: not (NOT_194): out = 323, in = 322 
323 322 0
-323 -322 0
c Gate #325: not (NOT_195): out = 324, in = 321 
324 321 0
-324 -321 0
c Gate #326: not (NOT_197): out = 325, in = 317 
325 317 0
-325 -317 0
c Gate #327: and (AND2_41): out = 326, in = 33 315 
-326 33 0
-326 315 0
326 -33 -315 0
c Gate #328: and (AND2_42): out = 327, in = 15 319 
-327 15 0
-327 319 0
327 -15 -319 0
c Gate #329: and (AND3_7): out = 328, in = 186 321 307 
-468 186 0
-468 321 0
468 -186 -321 0
-328 468 0
-328 307 0
328 -468 -307 0
c Gate #330: and (AND3_8): out = 329, in = 321 119 105 
-469 321 0
-469 119 0
469 -321 -119 0
-329 469 0
-329 105 0
329 -469 -105 0
c Gate #331: and (AND4_5): out = 330, in = 120 236 186 321 
-470 120 0
-470 236 0
470 -120 -236 0
-471 470 0
-471 186 0
471 -470 -186 0
-330 471 0
-330 321 0
330 -471 -321 0
c Gate #332: and (AND2_43): out = 331, in = 317 56 
-331 317 0
-331 56 0
331 -317 -56 0
c Gate #333: and (AND2_44): out = 332, in = 103 317 
-332 103 0
-332 317 0
332 -103 -317 0
c Gate #334: and (AND3_9): out = 333, in = 269 317 56 
-472 269 0
-472 317 0
472 -269 -317 0
-333 472 0
-333 56 0
333 -472 -56 0
c Gate #335: and (AND3_10): out = 334, in = 329 122 186 
-473 329 0
-473 122 0
473 -329 -122 0
-334 473 0
-334 186 0
334 -473 -186 0
c Gate #336: and (AND2_45): out = 335, in = 209 324 
-335 209 0
-335 324 0
335 -209 -324 0
c Gate #337: and (AND2_46): out = 336, in = 186 324 
-336 186 0
-336 324 0
336 -186 -324 0
c Gate #338: and (AND3_11): out = 337, in = 186 324 306 
-474 186 0
-474 324 0
474 -186 -324 0
-337 474 0
-337 306 0
337 -474 -306 0
c Gate #339: and (AND3_12): out = 338, in = 269 325 249 
-475 269 0
-475 325 0
475 -269 -325 0
-338 475 0
-338 249 0
338 -475 -249 0
c Gate #340: and (AND3_13): out = 339, in = 263 269 325 
-476 263 0
-476 269 0
476 -263 -269 0
-339 476 0
-339 325 0
339 -476 -325 0
c Gate #341: and (AND4_6): out = 340, in = 269 325 240 56 
-477 269 0
-477 325 0
477 -269 -325 0
-478 477 0
-478 240 0
478 -477 -240 0
-340 478 0
-340 56 0
340 -478 -56 0
c Gate #342: and (AND4_7): out = 341, in = 269 325 240 56 
-479 269 0
-479 325 0
479 -269 -325 0
-480 479 0
-480 240 0
480 -479 -240 0
-341 480 0
-341 56 0
341 -480 -56 0
c Gate #343: or (OR2_3): out = 342, in = 328 336 
342 -328 0
342 -336 0
-342 328 336 0
c Gate #344: or (OR2_4): out = 343, in = 337 335 
343 -337 0
343 -335 0
-343 337 335 0
c Gate #345: or (OR3_3): out = 344, in = 339 135 131 
481 -339 0
481 -135 0
-481 339 135 0
344 -481 0
344 -131 0
-344 481 131 0
c Gate #346: not (NOT_201): out = 345, in = 341 
345 341 0
-345 -341 0
c Gate #347: not (NOT_202): out = 346, in = 342 
346 342 0
-346 -342 0
c Gate #348: not (NOT_203): out = 347, in = 343 
347 343 0
-347 -343 0
c Gate #349: not (NOT_204): out = 348, in = 344 
348 344 0
-348 -344 0
c Gate #350: not (NOT_205): out = 349, in = 345 
349 345 0
-349 -345 0
c Gate #351: not (NOT_206): out = 350, in = 346 
350 346 0
-350 -346 0
c Gate #352: not (NOT_207): out = 351, in = 347 
351 347 0
-351 -347 0
c Gate #353: not (NOT_208): out = 352, in = 348 
352 348 0
-352 -348 0
c Gate #354: not (NOT_196): out = 353, in = 326 
353 326 0
-353 -326 0
c Gate #355: not (NOT_198): out = 354, in = 327 
354 327 0
-354 -327 0
c Gate #356: not (NOT_199): out = 355, in = 333 
355 333 0
-355 -333 0
c Gate #357: nand (NAND2_15): out = 356, in = 346 342 
356 346 0
356 342 0
-356 -346 -342 0
c Gate #358: nand (NAND2_16): out = 357, in = 347 343 
357 347 0
357 343 0
-357 -347 -343 0
c Gate #359: nand (NAND2_17): out = 358, in = 348 344 
358 348 0
358 344 0
-358 -348 -344 0
c Gate #360: nand (NAND2_18): out = 359, in = 350 356 
359 350 0
359 356 0
-359 -350 -356 0
c Gate #361: nand (NAND2_19): out = 360, in = 351 357 
360 351 0
360 357 0
-360 -351 -357 0
c Gate #362: nand (NAND2_20): out = 361, in = 352 358 
361 352 0
361 358 0
-361 -352 -358 0
c Gate #363: not (NOT_209): out = 362, in = 361 
362 361 0
-362 -361 0
c Gate #364: not (NOT_210): out = 363, in = 362 
363 362 0
-363 -362 0
c Gate #365: not (NOT_200): out = 364, in = 355 
364 355 0
-364 -355 0
c Gate #366: and (AND2_47): out = 365, in = 21 363 
-365 21 0
-365 363 0
365 -21 -363 0
c Gate #367: not (NOT_211): out = 366, in = 365 
366 365 0
-366 -365 0
c Gate #368: not (NOT_212): out = 367, in = 365 
367 365 0
-367 -365 0
c Gate #369: not (NOT_213): out = 368, in = 367 
368 367 0
-368 -367 0
c Gate #370: not (NOT_214): out = 369, in = 368 
369 368 0
-369 -368 0
c Gate #371: not (NOT_215): out = 370, in = 369 
370 369 0
-370 -369 0
c Gate #372: not (NOT_216): out = 371, in = 370 
371 370 0
-371 -370 0
c Gate #373: not (NOT_217): out = 372, in = 371 
372 371 0
-372 -371 0
c Gate #374: not (NOT_218): out = 373, in = 372 
373 372 0
-373 -372 0
c Gate #375: not (NOT_219): out = 374, in = 373 
374 373 0
-374 -373 0
c Gate #376: nand (NAND2_21): out = 375, in = 373 57 
375 373 0
375 57 0
-375 -373 -57 0
c Gate #377: and (AND2_48): out = 376, in = 83 374 
-376 83 0
-376 374 0
376 -83 -374 0
c Gate #378: and (AND2_49): out = 377, in = 87 375 
-377 87 0
-377 375 0
377 -87 -375 0
c Gate #379: not (NOT_226): out = 378, in = 377 
378 377 0
-378 -377 0
c Gate #380: not (NOT_227): out = 379, in = 378 
379 378 0
-379 -378 0
c Gate #381: not (NOT_220): out = 380, in = 376 
380 376 0
-380 -376 0
c Gate #382: not (NOT_224): out = 381, in = 377 
381 377 0
-381 -377 0
c Gate #383: not (NOT_221): out = 382, in = 380 
382 380 0
-382 -380 0
c Gate #384: not (NOT_222): out = 383, in = 376 
383 376 0
-383 -376 0
c Gate #385: not (NOT_223): out = 384, in = 383 
384 383 0
-384 -383 0
c Gate #386: not (NOT_225): out = 385, in = 381 
385 381 0
-385 -381 0
c Gate #387: and (AND2_50): out = 386, in = 29 384 
-386 29 0
-386 384 0
386 -29 -384 0
c Gate #388: not (NOT_233): out = 387, in = 386 
387 386 0
-387 -386 0
c Gate #389: not (NOT_228): out = 388, in = 382 
388 382 0
-388 -382 0
c Gate #390: not (NOT_229): out = 389, in = 388 
389 388 0
-389 -388 0
c Gate #391: not (NOT_230): out = 390, in = 385 
390 385 0
-390 -385 0
c Gate #392: not (NOT_231): out = 391, in = 390 
391 390 0
-391 -390 0
c Gate #393: and (AND2_51): out = 392, in = 13 379 
-392 13 0
-392 379 0
392 -13 -379 0
c Gate #394: and (AND3_14): out = 393, in = 389 119 118 
-482 389 0
-482 119 0
482 -389 -119 0
-393 482 0
-393 118 0
393 -482 -118 0
c Gate #395: and (AND3_15): out = 394, in = 177 389 373 
-483 177 0
-483 389 0
483 -177 -389 0
-394 483 0
-394 373 0
394 -483 -373 0
c Gate #396: not (NOT_234): out = 395, in = 385 
395 385 0
-395 -385 0
c Gate #397: not (NOT_235): out = 396, in = 392 
396 392 0
-396 -392 0
c Gate #398: not (NOT_232): out = 397, in = 389 
397 389 0
-397 -389 0
c Gate #399: and (AND4_8): out = 398, in = 338 177 389 104 
-484 338 0
-484 177 0
484 -338 -177 0
-485 484 0
-485 389 0
485 -484 -389 0
-398 485 0
-398 104 0
398 -485 -104 0
c Gate #400: and (AND4_9): out = 399, in = 175 238 177 389 
-486 175 0
-486 238 0
486 -175 -238 0
-487 486 0
-487 177 0
487 -486 -177 0
-399 487 0
-399 389 0
399 -487 -389 0
c Gate #401: and (AND2_52): out = 400, in = 385 56 
-400 385 0
-400 56 0
400 -385 -56 0
c Gate #402: and (AND2_53): out = 401, in = 104 385 
-401 104 0
-401 385 0
401 -104 -385 0
c Gate #403: and (AND3_16): out = 402, in = 249 385 56 
-488 249 0
-488 385 0
488 -249 -385 0
-402 488 0
-402 56 0
402 -488 -56 0
c Gate #404: and (AND3_17): out = 403, in = 393 122 177 
-489 393 0
-489 122 0
489 -393 -122 0
-403 489 0
-403 177 0
403 -489 -177 0
c Gate #405: and (AND2_54): out = 404, in = 330 399 
-404 330 0
-404 399 0
404 -330 -399 0
c Gate #406: and (AND2_55): out = 405, in = 183 397 
-405 183 0
-405 397 0
405 -183 -397 0
c Gate #407: and (AND2_56): out = 406, in = 177 397 
-406 177 0
-406 397 0
406 -177 -397 0
c Gate #408: and (AND3_18): out = 407, in = 177 397 372 
-490 177 0
-490 397 0
490 -177 -397 0
-407 490 0
-407 372 0
407 -490 -372 0
c Gate #409: and (AND3_22): out = 408, in = 249 395 100 
-491 249 0
-491 395 0
491 -249 -395 0
-408 491 0
-408 100 0
408 -491 -100 0
c Gate #410: or (OR3_4): out = 409, in = 398 401 400 
492 -398 0
492 -401 0
-492 398 401 0
409 -492 0
409 -400 0
-409 492 400 0
c Gate #411: or (OR3_5): out = 410, in = 334 403 121 
493 -334 0
493 -403 0
-493 334 403 0
410 -493 0
410 -121 0
-410 493 121 0
c Gate #412: or (OR2_5): out = 411, in = 394 406 
411 -394 0
411 -406 0
-411 394 406 0
c Gate #413: or (OR2_6): out = 412, in = 407 405 
412 -407 0
412 -405 0
-412 407 405 0
c Gate #414: or (OR4_0): out = 413, in = 410 404 254 259 
494 -410 0
494 -404 0
-494 410 404 0
495 -494 0
495 -254 0
-495 494 254 0
413 -495 0
413 -259 0
-413 495 259 0
c Gate #415: not (NOT_236): out = 414, in = 409 
414 409 0
-414 -409 0
c Gate #416: not (NOT_238): out = 415, in = 411 
415 411 0
-415 -411 0
c Gate #417: and (AND3_23): out = 416, in = 408 236 325 
-496 408 0
-496 236 0
496 -408 -236 0
-416 496 0
-416 325 0
416 -496 -325 0
c Gate #418: not (NOT_239): out = 417, in = 412 
417 412 0
-417 -412 0
c Gate #419: not (NOT_240): out = 418, in = 414 
418 414 0
-418 -414 0
c Gate #420: and (AND3_19): out = 419, in = 402 269 325 
-497 402 0
-497 269 0
497 -402 -269 0
-419 497 0
-419 325 0
419 -497 -325 0
c Gate #421: and (AND3_20): out = 420, in = 269 325 395 
-498 269 0
-498 325 0
498 -269 -325 0
-420 498 0
-420 395 0
420 -498 -395 0
c Gate #422: and (AND3_21): out = 421, in = 269 249 395 
-499 269 0
-499 249 0
499 -269 -249 0
-421 499 0
-421 395 0
421 -499 -395 0
c Gate #423: not (NOT_244): out = 422, in = 417 
422 417 0
-422 -417 0
c Gate #424: not (NOT_243): out = 423, in = 415 
423 415 0
-423 -415 0
c Gate #425: not (NOT_242): out = 424, in = 413 
424 413 0
-424 -413 0
c Gate #426: nand (NAND2_22): out = 425, in = 415 411 
425 415 0
425 411 0
-425 -415 -411 0
c Gate #427: nand (NAND2_23): out = 426, in = 417 412 
426 417 0
426 412 0
-426 -417 -412 0
c Gate #428: nand (NAND2_24): out = 427, in = 424 413 
427 424 0
427 413 0
-427 -424 -413 0
c Gate #429: nand (NAND2_25): out = 428, in = 423 425 
428 423 0
428 425 0
-428 -423 -425 0
c Gate #430: nand (NAND2_26): out = 429, in = 422 426 
429 422 0
429 426 0
-429 -422 -426 0
c Gate #431: not (NOT_248): out = 430, in = 424 
430 424 0
-430 -424 0
c Gate #432: or (OR3_8): out = 431, in = 416 277 276 
500 -416 0
500 -277 0
-500 416 277 0
431 -500 0
431 -276 0
-431 500 276 0
c Gate #433: and (AND4_11): out = 432, in = 421 186 321 103 
-501 421 0
-501 186 0
501 -421 -186 0
-502 501 0
-502 321 0
502 -501 -321 0
-432 502 0
-432 103 0
432 -502 -103 0
c Gate #434: not (NOT_237): out = 433, in = 419 
433 419 0
-433 -419 0
c Gate #435: and (AND4_10): out = 434, in = 420 175 238 102 
-503 420 0
-503 175 0
503 -420 -175 0
-504 503 0
-504 238 0
504 -503 -238 0
-434 504 0
-434 102 0
434 -504 -102 0
c Gate #436: or (OR3_6): out = 435, in = 434 258 257 
505 -434 0
505 -258 0
-505 434 258 0
435 -505 0
435 -257 0
-435 505 257 0
c Gate #437: nand (NAND2_27): out = 436, in = 430 427 
436 430 0
436 427 0
-436 -430 -427 0
c Gate #438: not (NOT_252): out = 437, in = 436 
437 436 0
-437 -436 0
c Gate #439: or (OR3_7): out = 438, in = 432 332 331 
506 -432 0
506 -332 0
-506 432 332 0
438 -506 0
438 -331 0
-438 506 331 0
c Gate #440: not (NOT_245): out = 439, in = 435 
439 435 0
-439 -435 0
c Gate #441: not (NOT_241): out = 440, in = 433 
440 433 0
-440 -433 0
c Gate #442: not (NOT_246): out = 441, in = 438 
441 438 0
-441 -438 0
c Gate #443: not (NOT_253): out = 442, in = 437 
442 437 0
-442 -437 0
c Gate #444: and (AND2_57): out = 443, in = 25 442 
-443 25 0
-443 442 0
443 -25 -442 0
c Gate #445: not (NOT_247): out = 444, in = 431 
444 431 0
-444 -431 0
c Gate #446: not (NOT_249): out = 445, in = 439 
445 439 0
-445 -439 0
c Gate #447: not (NOT_251): out = 446, in = 444 
446 444 0
-446 -444 0
c Gate #448: not (NOT_250): out = 447, in = 441 
447 441 0
-447 -441 0
c
c Random XOR constraints start here
c
-507 429 359 0
-507 -429 -359 0
507 -429 359 0
507 429 -359 0
-508 507 443 0
-508 -507 -443 0
508 -507 443 0
508 507 -443 0
-509 508 340 0
-509 -508 -340 0
509 -508 340 0
509 508 -340 0
-510 509 278 0
-510 -509 -278 0
510 -509 278 0
510 509 -278 0
-511 510 192 0
-511 -510 -192 0
511 -510 192 0
511 510 -192 0
-512 511 166 0
-512 -511 -166 0
512 -511 166 0
512 511 -166 0
512 0
c Rand xor clause 1 with 7 lits
-513 429 359 0
-513 -429 -359 0
513 -429 359 0
513 429 -359 0
-514 513 443 0
-514 -513 -443 0
514 -513 443 0
514 513 -443 0
-515 514 340 0
-515 -514 -340 0
515 -514 340 0
515 514 -340 0
-516 515 278 0
-516 -515 -278 0
516 -515 278 0
516 515 -278 0
-517 516 192 0
-517 -516 -192 0
517 -516 192 0
517 516 -192 0
-518 517 166 0
-518 -517 -166 0
518 -517 166 0
518 517 -166 0
518 0
c Rand xor clause 2 with 7 lits
-519 429 359 0
-519 -429 -359 0
519 -429 359 0
519 429 -359 0
-520 519 443 0
-520 -519 -443 0
520 -519 443 0
520 519 -443 0
-521 520 340 0
-521 -520 -340 0
521 -520 340 0
521 520 -340 0
-522 521 278 0
-522 -521 -278 0
522 -521 278 0
522 521 -278 0
-523 522 192 0
-523 -522 -192 0
523 -522 192 0
523 522 -192 0
-524 523 166 0
-524 -523 -166 0
524 -523 166 0
524 523 -166 0
524 0
c Rand xor clause 3 with 7 lits
-525 429 359 0
-525 -429 -359 0
525 -429 359 0
525 429 -359 0
-526 525 443 0
-526 -525 -443 0
526 -525 443 0
526 525 -443 0
-527 526 340 0
-527 -526 -340 0
527 -526 340 0
527 526 -340 0
-528 527 278 0
-528 -527 -278 0
528 -527 278 0
528 527 -278 0
-529 528 192 0
-529 -528 -192 0
529 -528 192 0
529 528 -192 0
-530 529 166 0
-530 -529 -166 0
530 -529 166 0
530 529 -166 0
530 0
c Rand xor clause 4 with 7 lits
-531 429 359 0
-531 -429 -359 0
531 -429 359 0
531 429 -359 0
-532 531 443 0
-532 -531 -443 0
532 -531 443 0
532 531 -443 0
-533 532 340 0
-533 -532 -340 0
533 -532 340 0
533 532 -340 0
-534 533 278 0
-534 -533 -278 0
534 -533 278 0
534 533 -278 0
-535 534 192 0
-535 -534 -192 0
535 -534 192 0
535 534 -192 0
-536 535 166 0
-536 -535 -166 0
536 -535 166 0
536 535 -166 0
536 0
c Rand xor clause 5 with 7 lits
-537 429 359 0
-537 -429 -359 0
537 -429 359 0
537 429 -359 0
-538 537 443 0
-538 -537 -443 0
538 -537 443 0
538 537 -443 0
-539 538 340 0
-539 -538 -340 0
539 -538 340 0
539 538 -340 0
-540 539 278 0
-540 -539 -278 0
540 -539 278 0
540 539 -278 0
-541 540 192 0
-541 -540 -192 0
541 -540 192 0
541 540 -192 0
-542 541 166 0
-542 -541 -166 0
542 -541 166 0
542 541 -166 0
542 0
c Rand xor clause 6 with 7 lits
-543 429 359 0
-543 -429 -359 0
543 -429 359 0
543 429 -359 0
-544 543 443 0
-544 -543 -443 0
544 -543 443 0
544 543 -443 0
-545 544 340 0
-545 -544 -340 0
545 -544 340 0
545 544 -340 0
-546 545 278 0
-546 -545 -278 0
546 -545 278 0
546 545 -278 0
-547 546 192 0
-547 -546 -192 0
547 -546 192 0
547 546 -192 0
-548 547 166 0
-548 -547 -166 0
548 -547 166 0
548 547 -166 0
548 0
c Rand xor clause 7 with 7 lits
-549 429 359 0
-549 -429 -359 0
549 -429 359 0
549 429 -359 0
-550 549 443 0
-550 -549 -443 0
550 -549 443 0
550 549 -443 0
-551 550 340 0
-551 -550 -340 0
551 -550 340 0
551 550 -340 0
-552 551 278 0
-552 -551 -278 0
552 -551 278 0
552 551 -278 0
-553 552 192 0
-553 -552 -192 0
553 -552 192 0
553 552 -192 0
-554 553 166 0
-554 -553 -166 0
554 -553 166 0
554 553 -166 0
554 0
c Rand xor clause 8 with 7 lits
-555 429 359 0
-555 -429 -359 0
555 -429 359 0
555 429 -359 0
-556 555 443 0
-556 -555 -443 0
556 -555 443 0
556 555 -443 0
-557 556 340 0
-557 -556 -340 0
557 -556 340 0
557 556 -340 0
-558 557 278 0
-558 -557 -278 0
558 -557 278 0
558 557 -278 0
-559 558 192 0
-559 -558 -192 0
559 -558 192 0
559 558 -192 0
-560 559 166 0
-560 -559 -166 0
560 -559 166 0
560 559 -166 0
560 0
c Rand xor clause 9 with 7 lits
-561 429 359 0
-561 -429 -359 0
561 -429 359 0
561 429 -359 0
-562 561 443 0
-562 -561 -443 0
562 -561 443 0
562 561 -443 0
-563 562 340 0
-563 -562 -340 0
563 -562 340 0
563 562 -340 0
-564 563 278 0
-564 -563 -278 0
564 -563 278 0
564 563 -278 0
-565 564 192 0
-565 -564 -192 0
565 -564 192 0
565 564 -192 0
-566 565 166 0
-566 -565 -166 0
566 -565 166 0
566 565 -166 0
566 0
c Rand xor clause 10 with 7 lits
-567 429 359 0
-567 -429 -359 0
567 -429 359 0
567 429 -359 0
-568 567 443 0
-568 -567 -443 0
568 -567 443 0
568 567 -443 0
-569 568 340 0
-569 -568 -340 0
569 -568 340 0
569 568 -340 0
-570 569 278 0
-570 -569 -278 0
570 -569 278 0
570 569 -278 0
-571 570 192 0
-571 -570 -192 0
571 -570 192 0
571 570 -192 0
-572 571 166 0
-572 -571 -166 0
572 -571 166 0
572 571 -166 0
572 0
c Rand xor clause 11 with 7 lits
-573 429 359 0
-573 -429 -359 0
573 -429 359 0
573 429 -359 0
-574 573 443 0
-574 -573 -443 0
574 -573 443 0
574 573 -443 0
-575 574 340 0
-575 -574 -340 0
575 -574 340 0
575 574 -340 0
-576 575 278 0
-576 -575 -278 0
576 -575 278 0
576 575 -278 0
-577 576 192 0
-577 -576 -192 0
577 -576 192 0
577 576 -192 0
-578 577 166 0
-578 -577 -166 0
578 -577 166 0
578 577 -166 0
578 0
c Rand xor clause 12 with 7 lits
-579 429 359 0
-579 -429 -359 0
579 -429 359 0
579 429 -359 0
-580 579 443 0
-580 -579 -443 0
580 -579 443 0
580 579 -443 0
-581 580 340 0
-581 -580 -340 0
581 -580 340 0
581 580 -340 0
-582 581 278 0
-582 -581 -278 0
582 -581 278 0
582 581 -278 0
-583 582 192 0
-583 -582 -192 0
583 -582 192 0
583 582 -192 0
-584 583 166 0
-584 -583 -166 0
584 -583 166 0
584 583 -166 0
584 0
c Rand xor clause 13 with 7 lits
-585 429 359 0
-585 -429 -359 0
585 -429 359 0
585 429 -359 0
-586 585 443 0
-586 -585 -443 0
586 -585 443 0
586 585 -443 0
-587 586 340 0
-587 -586 -340 0
587 -586 340 0
587 586 -340 0
-588 587 278 0
-588 -587 -278 0
588 -587 278 0
588 587 -278 0
-589 588 192 0
-589 -588 -192 0
589 -588 192 0
589 588 -192 0
-590 589 166 0
-590 -589 -166 0
590 -589 166 0
590 589 -166 0
590 0
c Rand xor clause 14 with 7 lits
-591 429 359 0
-591 -429 -359 0
591 -429 359 0
591 429 -359 0
-592 591 443 0
-592 -591 -443 0
592 -591 443 0
592 591 -443 0
-593 592 340 0
-593 -592 -340 0
593 -592 340 0
593 592 -340 0
-594 593 278 0
-594 -593 -278 0
594 -593 278 0
594 593 -278 0
-595 594 192 0
-595 -594 -192 0
595 -594 192 0
595 594 -192 0
-596 595 166 0
-596 -595 -166 0
596 -595 166 0
596 595 -166 0
596 0
c Rand xor clause 15 with 7 lits
